true true false
presolving:
presolving (0 rounds: 0 fast, 0 medium, 0 exhaustive):
 0 deleted vars, 0 deleted constraints, 0 added constraints, 0 tightened bounds, 0 added holes, 0 changed sides, 0 changed coefficients
 0 implications, 0 cliques
presolved problem has 76 variables (76 bin, 0 int, 0 impl, 0 cont) and 70 constraints
     70 constraints of type <linear>
transformed objective value is always integral (scale: 1)
Presolving Time: 0.00

 time | node  | left  |LP iter|LP it/n|mem/heur|mdpt |vars |cons |rows |cuts |sepa|confs|strbr|  dualbound   | primalbound  |  gap   | compl. 
p 0.0s|     1 |     0 |     0 |     - |shiftand|   0 |  76 |  70 |  70 |   0 |  0 |   0 |   0 |      --      | 6.000000e+00 |    Inf | unknown
 time | node  | left  |LP iter|LP it/n|mem/heur|mdpt |vars |cons |rows |cuts |sepa|confs|strbr|  dualbound   | primalbound  |  gap   | compl. 
  1.5s|     1 |     0 |    13 |     - |  6639k |   0 |1205 |  70 |  70 |   0 |  0 |   0 |   0 | 1.000000e+00 | 6.000000e+00 | 500.00%| unknown
slurmstepd-htc-cmp438: error: *** JOB 16657081 ON htc-cmp438 CANCELLED AT 2024-01-27T21:45:32 DUE TO TIME LIMIT ***
